!def2-SVP b3lyp opt numfreq
 

*xyz 0 2
C       -0.507912712      0.000000000     -1.794734841
H       -0.507912712      1.019690000     -2.193990841
H        0.375165288     -0.509845000     -2.193990841
C       -0.507912712      0.000000000     -0.264746841
H       -1.390990712      0.509845000      0.134509159
H       -0.507912712     -1.019690000      0.134509159
H        0.375165288      0.509845000      0.134509159
*
