!def2-SVP b3lyp opt numfreq
 

*xyz 0 1
O         -1.06563        3.96181        0.00000
H         -0.09563        3.96181        0.00000
H         -1.38896        3.46653        0.76880
*
